(set-logic SLIA)
(constraint (= (f "ayako" "ogawa" "acme.com") "aogawa_acme.com"))
(constraint (= (f "amy" "johnson" "google.com") "ajohnson_google.com"))
(constraint (= (f "tom" "chang" "upenn.edu") "tchang_upenn.edu"))
(check-synth)
(synth-fun f ((_arg_0 String) (_arg_1 String) (_arg_2 String)) String ((Start String (ntString)) (ntString String ((Str A) (str.++ ntString A))) (A String ((Str ConstString) (SubStr X P P))) (P Int ((Int ntInt) (Pos X Pattern ntInt Direction))) (Pattern String ((Str ConstString) "ProperCase" "CAPS" "lowercase" "Digits" "Alphabets" "Alphanumeric" "WhiteSpace" "ProperCaseWSpaces" "CAPSWSpaces" "lowercaseSpaces" "AlphabetsWSpaces")) (X String (_arg_0 _arg_1 _arg_2)) (ConstString String (_arg_0 _arg_1 _arg_2 "" " " "_")) (Direction Int (0 1)) (ntInt Int (-5 -4 -3 -2 -1 0 1 2 3 4 5))))
